c FILE : sample.gr
c No. of vertices : 10
c No. of directed edges : 15
c Max. weight : 100
c Min. weight : 0
c A directed arc from u to v of weight w
c is represented below as ' a u v w '
p sp 10 15
a 1 2 45
a 2 3 32
a 3 4 58
a 4 5 27
a 5 6 67
a 6 7 52
a 7 8 93
a 8 9 75
a 9 10 60
a 1 3 18
a 2 5 25
a 3 7 48
a 4 8 36
a 5 9 10
a 6 10 55